16474
17162
17756
18380
19080
19718
20528
21233
21825
22539
23031
23327
23571
23749
23934
24138
24261
24393
24549
24681
24821
24947
25133
25245
25346
25474
25577
25659
25716
25811
25880
25954
26060
26153
26253
26346
26439
26538
26620
26694
26759
26824
26886
26960
27023
27075
27128
27190
27244
27329
27381
27434
27512
27572
27639
27700
27769
27853
27936
27977
28034
28097
28166
28224
28270
28311
28357
28404
28460
28516
28553
28595
28651
28685
28709
28724
28744
28767
28786
28805
28833
28858
28874
28886
28904
28932
28948
28967
29012
29065
29125
29210
29314
29347
29371
29410
29448
29473
29473
